30 62
29
6 18 0 44
2 12 0 4
10 7 13 5
4 23 0 16
4 1 14 37
7 7 23 0
11 4 0 0
6 5 0 39
2 7 5 9
6 11 6 48
10 19 4 19
11 5 2 4
4 2 11 0
7 5 23 7
4 2 11 2
7 12 18 37
7 13 18 49
3 6 11 12
6 10 6 38
9 16 14 12
1 4 29 58
4 10 7 9
6 24 12 38
9 9 14 28
2 1 5 18
8 5 15 0
3 5 2 9
7 25 23 12
5 21 25 37
